c Random Network
p min 10 90
c Transformed from a max-flow problem.
a   7 2 0 27 0
a   6 4 0 24 0
a   9 1 0 45 0
a   6 2 0 28 0
a   6 5 0 7 0
a   9 2 0 27 0
a   9 8 0 9 0
a   10 3 0 35 0
a   1 2 0 38 0
a   10 9 0 49 0
a   7 8 0 6 0
a   4 2 0 5 0
a   1 3 0 24 0
a   4 8 0 5 0
a   5 6 0 44 0
a   8 6 0 25 0
a   8 10 0 32 0
a   7 6 0 28 0
a   8 7 0 21 0
a   3 6 0 30 0
a   7 5 0 33 0
a   10 5 0 7 0
a   4 6 0 30 0
a   4 1 0 19 0
a   2 7 0 24 0
a   3 1 0 24 0
a   9 7 0 45 0
a   2 5 0 27 0
a   3 10 0 26 0
a   2 1 0 31 0
a   5 4 0 6 0
a   1 5 0 49 0
a   6 3 0 19 0
a   7 10 0 30 0
a   1 4 0 1 0
a   7 9 0 36 0
a   2 4 0 31 0
a   5 2 0 42 0
a   2 8 0 43 0
a   6 10 0 27 0
a   9 3 0 11 0
a   1 8 0 24 0
a   2 6 0 7 0
a   9 10 0 12 0
a   1 7 0 20 0
a   5 9 0 22 0
a   2 3 0 19 0
a   10 7 0 46 0
a   10 2 0 13 0
a   10 6 0 28 0
a   3 2 0 18 0
a   1 9 0 23 0
a   8 5 0 31 0
a   9 5 0 20 0
a   5 1 0 39 0
a   4 5 0 18 0
a   5 10 0 35 0
a   4 9 0 8 0
a   4 7 0 27 0
a   7 1 0 11 0
a   5 8 0 33 0
a   1 6 0 43 0
a   6 7 0 7 0
a   6 1 0 32 0
a   5 7 0 32 0
a   8 1 0 9 0
a   2 9 0 26 0
a   6 8 0 50 0
a   10 1 0 48 0
a   7 3 0 8 0
a   10 8 0 22 0
a   3 9 0 21 0
a   2 10 0 10 0
a   8 2 0 13 0
a   3 7 0 45 0
a   6 9 0 14 0
a   4 10 0 33 0
a   1 10 0 36 0
a   3 5 0 23 0
a   10 4 0 24 0
a   3 4 0 23 0
a   9 6 0 18 0
a   5 3 0 33 0
a   4 3 0 30 0
a   8 4 0 31 0
a   7 4 0 46 0
a   8 9 0 10 0
a   8 3 0 11 0
a   9 4 0 21 0
a   3 8 0 23 0
n  1 241
n  10 -241
